p cnf 19 10
e 1 0
a 2 3 0
e 4 0
a 5 6 7 0
e 8 9 0
a 10 0
e 11 12 13 14 15 0
a 16 17 0
e 18 0
a 19 0
-3 -15 -2 18 0
12 18 6 16 0
12 5 7 2 0
-4 -11 -14 10 0
18 8 5 -11 -9 0
7 10 -8 -16 -9 0
16 3 -9 8 0
2 -7 -11 8 15 0
-8 -12 11 -3 0
-12 -14 -18 -6 -13 0
